   SYSTEM = C2N
   ISTART =  0
   ISMEAR =  0
   SIGMA = 0.1
   EDIFF  =  0.0001
   EDIFFG =  -0.005
   IBRION = 2
   POTIM = 0.4
   NSW  = 100
   PREC = MEDIUM
  LWAVE = .FALSE.
  LPLANE = .TRUE.
  IALGO = 48
