   SYSTEM = C2N
   ISTART =  1
   ISMEAR =  0
   SIGMA = 0.005 #
   ICHARG = 11
   LORBIT = 11
   ENCUT = 400 eV
   EDIFF  =  0.000001
   EDIFFG =  -0.001
   IBRION = -1
   #POTIM = 0.2
   NSW  = 0
   #PREC = HIGH
   LWAVE = .FALSE.
# LPLANE = .TRUE.
   IALGO = 48
   ISPIN = 2
   NGX = 50
   NGY = 50
   NGZ = 108
   NGXF = 80
   NGYF = 80
   NGZF = 168
