   SYSTEM = h-graphene
   IMAGES = 8
   ICHAIN = 0
   SPRING = -5
   IBRION = 1
   LCLIMB = .TRUE.
   LSCALAPACK = .FALSE.
   ISTART =  0
#  ICHARG = 1
   ISMEAR =  0
   SIGMA = 0.1
   EDIFF  =  0.0001
   EDIFFG =  -0.005
#NELM   =             15    #  maximum of 40 electronic steps
#NELMIN =              2    #  minimum of two steps
   IBRION = 2
   POTIM = 0.04
   NSW  = 60
   PREC = MEDIUM
# ISPIN = 2
# LCHARG = F
  LWAVE = .FALSE.
  LPLANE = .TRUE.
  IALGO = 48
  NPAR = 1

