   SYSTEM = C2N
   ISTART =  0
   ISMEAR =  0
   SIGMA = 0.1
   EDIFF  =  0.0001
   EDIFFG =  -0.005
   IBRION = 2
   POTIM = 0.4
   NSW  = 0
   PREC = MEDIUM
  LPLANE = .TRUE.
  IALGO = 48
   NCORE = 24
   LVDW = .TRUE.
   VDW_RADIUS   = 30.0
   VDW_SCALING   = 0.75
   VDW_D   = 20.0
   VDW_C6   = 1.75 1.23
   VDW_R0   = 1.452 1.397 
