 O  N  H                                
   1.00000000000000     
    21.9399000000000015    0.0000000000000000    0.0000000000000000
     0.0000000000000000   21.1200000000000010    0.0000000000000000
     0.0000000000000000    0.0000000000000000   20.0000000000000000
   O    N    H 
     1     1     3
Direct
  0.4717878328038034  0.4595869570139951  0.5000000000000000
  0.5250976053261608  0.4988158001323488  0.5000000000000000
  0.5639937204066177  0.4739582204100743  0.5000000000000000
  0.5209505099432756  0.5461383638085286  0.5000000000000000
  0.4379083430881091  0.4893036889380838  0.5000000000000000
 
  0.00000000E+00  0.00000000E+00  0.00000000E+00
  0.00000000E+00  0.00000000E+00  0.00000000E+00
  0.00000000E+00  0.00000000E+00  0.00000000E+00
  0.00000000E+00  0.00000000E+00  0.00000000E+00
  0.00000000E+00  0.00000000E+00  0.00000000E+00
