C
8.35
        1.000000000         0.0000000000         0.0000000000
        0.500000000         0.866025             0.0000000000
        0.0000000000        0.0000000000         1.79640718
    C    N
   12    6
Direct
     0.780600011         0.555899978         0.500000000
     0.434500009         0.720899999         0.500000000
     0.283899993         0.556100011         0.500100017
     0.455700010         0.212300003         0.500000000
     0.109600000         0.385300010         0.500000000
     0.283899993         0.211999997         0.500000000
     0.606400013         0.896899998         0.499900013
     0.434599996         0.896700025         0.500000000
     0.780600011         0.723599970         0.499900013
     0.606299996         0.552900016         0.500000000
     0.455700010         0.388099998         0.500000000
     0.109600000         0.552999973         0.500100017
     0.275400013         0.058600001         0.500000000
     0.275299996         0.717999995         0.500100017
     0.614899993         0.053900000         0.499900013
     0.614799976         0.391000003         0.500000000
     0.939000010         0.397799999         0.500000000
     0.939000010         0.727100015         0.499900013
